\ENCODING=ISO-8859-1
\Problem name: 

Maximize
 obj1: 1800.69166420115 y0 + 1758.8378041398 y1 + 1726.4516017085 y2
       + 1515.78468196605 y3 + 1500.75598715376 y4 + 1492.51271049531 y5
       + 1491.8122368979 y6 + 1493.00429666773 y7 + 1493.82673243153 y8
       + 1456.48520680792 y9 + 1295.91284703096 y10 + 1231.62744255162 y11
       + 1447.3629990791 y12 + 1314.50837773296 y13 + 1439.26135061353 y14
       + 1420.39388698089 y15 + 1950.2913684557 y16 + 211.827506339453 y17
       + 1506.91830450688 y18 + 214.070000586036 y19 + 2326.97464145574 y20
Subject To
 pinv0:     - y20 + y22  = 0
 pinv1:     - y16 + y23  = 0
 pinv2:     - y0 + y24  = 0
 pinv3:     - y1 + y25  = 0
 pinv4:     - y2 + y26  = 0
 pinv5:     - y3 + y27  = 0
 pinv6:     - y18 + y28  = 0
 pinv7:     - y4 + y29  = 0
 pinv8:     - y5 + y30  = 0
 pinv9:     - y6 + y31  = 0
 pinv10:    - y7 + y32  = 0
 pinv11:    - y8 + y33  = 0
 pinv12:    - y9 + y34  = 0
 pinv13:    - y13 + y35  = 0
 pinv14:    - y15 + y36  = 0
 pinv15:    - y14 + y37  = 0
 pinv16:    - y11 + y38  = 0
 pinv17:    - y12 + y39  = 0
 pinv18:    - y10 + y40  = 0
 pinv19:    - y17 + y41  = 0
 pinv20:    - y19 + y42  = 0
 pinv21:    y20 - y21  = 0
 pinv22:    y16 - y22  = 0
 pinv23:    y17 - y22  = 0
 pinv24:    y0 - y23  = 0
 pinv25:    y1 - y24  = 0
 pinv26:    y2 - y25  = 0
 pinv27:    y3 - y26  = 0
 pinv28:    y18 - y27  = 0
 pinv29:    y19 - y27  = 0
 pinv30:    y4 - y28  = 0
 pinv31:    y5 - y29  = 0
 pinv32:    y6 - y30  = 0
 pinv33:    y7 - y31  = 0
 pinv34:    y8 - y32  = 0
 pinv35:    y9 - y33  = 0
 pinv36:    y13 - y34  = 0
 pinv37:    y14 - y34  = 0
 pinv38:    y15 - y35  = 0
 pinv39:    y14 - y36  = 0
 pinv40:    y11 - y36  = 0
 pinv41:    y12 - y36  = 0
 pinv42:    y10 - y37  = 0
 pinv43:    y11 - y37  = 0
 pinv44:    y12 - y37  = 0
 pinv45:    y12 - y38  = 0
 pinv46:    y21 - y39  = 0
 pinv47:    y11 - y40  = 0
 pinv48:    y12 - y40  = 0
 pinv49:    y15 - y40  = 0
 pinv50:    y16 - y41  = 0
 pinv51:    y18 - y42  = 0
 inimark52: y20  = 1
End
